p edge 118 377
e 1 2
e 1 6
e 1 7
e 1 10
e 1 16
e 1 21
e 1 22
e 1 23
e 1 24
e 1 27
e 1 29
e 1 31
e 1 50
e 1 52
e 1 64
e 1 68
e 1 78
e 1 90
e 2 6
e 2 7
e 2 8
e 2 9
e 2 10
e 2 16
e 2 23
e 2 24
e 2 31
e 2 33
e 2 45
e 2 70
e 2 71
e 2 76
e 2 81
e 3 5
e 3 7
e 3 15
e 3 17
e 3 20
e 3 29
e 3 89
e 3 90
e 3 107
e 3 108
e 3 113
e 4 21
e 4 33
e 4 47
e 4 57
e 4 67
e 4 79
e 5 11
e 5 20
e 5 28
e 5 30
e 5 32
e 5 50
e 5 55
e 5 61
e 5 65
e 5 83
e 5 86
e 5 89
e 5 107
e 6 7
e 6 10
e 6 16
e 6 21
e 6 23
e 6 31
e 6 43
e 6 52
e 6 59
e 6 89
e 6 109
e 6 114
e 6 115
e 7 10
e 7 11
e 7 15
e 7 21
e 7 23
e 7 25
e 7 26
e 7 29
e 7 31
e 7 32
e 7 45
e 8 12
e 8 23
e 8 26
e 8 27
e 8 45
e 8 60
e 8 70
e 8 72
e 8 81
e 9 24
e 9 25
e 9 26
e 9 59
e 9 68
e 9 71
e 9 98
e 9 102
e 10 14
e 10 16
e 10 23
e 10 31
e 10 39
e 10 57
e 10 112
e 11 18
e 11 20
e 11 28
e 11 30
e 11 31
e 11 32
e 11 40
e 11 41
e 11 55
e 11 61
e 11 78
e 11 83
e 12 15
e 12 16
e 12 59
e 12 95
e 13 18
e 13 19
e 13 34
e 13 39
e 13 42
e 13 44
e 13 49
e 13 51
e 13 54
e 13 56
e 13 77
e 13 84
e 13 103
e 13 104
e 14 19
e 14 36
e 14 39
e 14 48
e 14 69
e 14 80
e 14 82
e 14 85
e 14 110
e 14 112
e 15 21
e 15 23
e 15 26
e 15 45
e 15 90
e 15 95
e 16 31
e 16 48
e 16 50
e 16 57
e 16 59
e 16 67
e 17 20
e 17 22
e 17 37
e 17 108
e 18 19
e 18 28
e 18 34
e 18 39
e 18 40
e 18 41
e 18 44
e 18 78
e 18 103
e 18 104
e 18 111
e 19 34
e 19 36
e 19 39
e 19 44
e 19 51
e 19 77
e 19 80
e 19 82
e 19 85
e 19 103
e 19 104
e 19 110
e 20 32
e 20 50
e 20 108
e 21 23
e 21 31
e 21 45
e 21 109
e 22 27
e 22 62
e 22 75
e 22 94
e 23 26
e 23 27
e 23 31
e 23 45
e 24 28
e 24 30
e 24 41
e 24 78
e 24 116
e 25 26
e 25 29
e 25 65
e 25 71
e 25 97
e 25 98
e 26 27
e 26 29
e 26 45
e 26 71
e 26 98
e 27 62
e 28 30
e 28 40
e 28 41
e 28 55
e 28 61
e 28 65
e 28 78
e 29 49
e 29 90
e 29 96
e 30 35
e 30 41
e 30 43
e 30 55
e 30 61
e 30 65
e 30 93
e 31 32
e 31 109
e 32 40
e 32 50
e 32 61
e 32 83
e 33 45
e 33 76
e 33 91
e 33 92
e 34 35
e 34 39
e 34 44
e 34 63
e 34 103
e 34 104
e 35 43
e 35 55
e 35 93
e 36 58
e 36 82
e 36 85
e 36 95
e 36 110
e 37 40
e 37 80
e 37 86
e 38 73
e 38 81
e 38 87
e 39 44
e 39 49
e 39 56
e 39 103
e 39 104
e 39 112
e 40 41
e 40 78
e 40 80
e 40 86
e 41 55
e 41 78
e 42 88
e 43 55
e 43 93
e 44 51
e 44 77
e 44 103
e 44 104
e 45 76
e 46 58
e 46 88
e 46 105
e 46 106
e 47 66
e 48 67
e 48 69
e 48 74
e 48 101
e 49 56
e 49 63
e 49 96
e 50 68
e 51 54
e 51 62
e 51 77
e 51 84
e 52 59
e 52 64
e 52 89
e 53 54
e 53 56
e 53 66
e 53 73
e 53 77
e 53 84
e 54 62
e 54 77
e 54 84
e 55 61
e 55 65
e 55 93
e 56 77
e 57 67
e 57 69
e 57 72
e 57 79
e 58 85
e 58 95
e 59 68
e 59 89
e 59 102
e 60 70
e 60 72
e 60 74
e 61 65
e 61 83
e 62 75
e 62 94
e 65 97
e 66 73
e 67 69
e 67 72
e 67 79
e 67 99
e 67 100
e 68 102
e 69 72
e 69 79
e 69 99
e 69 100
e 70 72
e 71 83
e 71 98
e 72 79
e 72 99
e 72 100
e 74 81
e 74 87
e 74 101
e 75 94
e 76 91
e 76 92
e 77 84
e 79 99
e 79 100
e 80 82
e 80 85
e 80 86
e 81 87
e 82 85
e 89 107
e 91 92
e 99 100
e 103 104
e 105 106
e 114 115
e 117 118
